p wcnf 161 191 192 
1 39 135 0 
1 -161 30 0 
1 115 16 0 
1 -90 77 0 
1 -148 -52 0 
1 -6 -82 0 
1 -88 -85 0 
1 10 58 0 
1 4 -84 0 
1 69 -28 0 
1 -39 24 0 
1 12 -133 0 
1 37 -24 0 
1 33 -31 0 
1 75 52 0 
1 -25 -12 0 
1 -92 -160 0 
1 -84 -38 0 
1 -36 111 0 
1 -43 -129 0 
1 -126 -18 0 
1 116 68 0 
1 7 90 0 
1 148 38 0 
1 32 -84 0 
1 4 -36 0 
1 121 4 0 
1 -105 -96 0 
1 -2 80 0 
1 -74 -124 0 
1 -65 -41 0 
1 -14 111 0 
1 -35 -62 0 
1 -93 -98 0 
1 -87 148 0 
1 -81 48 0 
1 -115 -91 0 
1 -33 53 0 
1 84 -29 0 
1 -19 -71 0 
1 -70 33 0 
1 7 77 0 
1 152 -90 0 
1 -159 20 0 
1 -91 104 0 
1 88 -149 0 
1 -43 -18 0 
1 -86 -117 0 
1 137 53 0 
1 111 -101 0 
1 -45 92 0 
1 103 60 0 
1 13 37 0 
1 -132 -56 0 
1 66 -126 0 
1 -97 -105 0 
1 105 -82 0 
1 -92 30 0 
1 -109 116 0 
1 37 -109 0 
1 72 45 0 
1 90 29 0 
1 13 -156 0 
1 -87 92 0 
1 -110 74 0 
1 57 -55 0 
1 -33 144 0 
1 -138 -94 0 
1 20 -126 0 
1 117 146 0 
1 -20 -73 0 
1 103 -114 0 
1 73 56 0 
1 39 78 0 
1 94 -51 0 
1 130 83 0 
1 54 -89 0 
1 -79 96 0 
1 131 -24 0 
1 4 -31 0 
1 -68 141 0 
1 -51 -126 0 
1 150 -88 0 
1 124 -30 0 
1 138 113 0 
1 -144 115 0 
1 -156 3 0 
1 68 86 0 
1 -5 50 0 
1 92 49 0 
1 -51 -91 0 
1 160 66 0 
1 153 -50 0 
1 12 -15 0 
1 -48 143 0 
1 -65 91 0 
1 157 30 0 
1 137 135 0 
1 -88 11 0 
1 94 40 0 
1 97 48 0 
1 -4 107 0 
1 -121 -59 0 
1 4 20 0 
1 -83 -69 0 
1 60 80 0 
1 -48 -7 0 
1 152 -50 0 
1 -131 -105 0 
1 -107 102 0 
1 146 -132 0 
1 150 61 0 
1 36 -40 0 
1 -52 -160 0 
1 -106 33 0 
1 99 152 0 
1 -122 -158 0 
1 38 -158 0 
1 -116 105 0 
1 84 -70 0 
1 150 -32 0 
1 -66 99 0 
1 156 66 0 
1 -38 75 0 
1 123 91 0 
1 30 87 0 
1 97 36 0 
1 -50 -73 0 
1 -59 154 0 
1 30 35 0 
1 -134 -36 0 
1 -95 101 0 
1 -38 -105 0 
1 -8 71 0 
1 -146 -106 0 
1 -129 85 0 
1 116 -25 0 
1 -112 138 0 
1 -110 -72 0 
1 -67 121 0 
1 111 -40 0 
1 36 -142 0 
1 45 -28 0 
1 156 142 0 
1 96 -117 0 
1 -150 75 0 
1 -137 114 0 
1 121 -131 0 
1 86 -91 0 
1 -40 144 0 
1 78 -126 0 
1 -46 153 0 
1 132 32 0 
1 -67 7 0 
1 -8 -107 0 
1 134 -36 0 
1 -61 -47 0 
1 -23 26 0 
1 136 -115 0 
1 -156 -52 0 
1 -111 102 0 
1 -56 -149 0 
1 -26 -100 0 
1 -116 -118 0 
1 -48 -82 0 
1 -148 56 0 
1 44 -85 0 
1 16 156 0 
1 -68 -9 0 
1 58 -126 0 
1 -117 -39 0 
1 -21 151 0 
1 5 -159 0 
1 74 -14 0 
1 69 -60 0 
1 109 127 0 
1 95 8 0 
1 -127 2 0 
1 -10 80 0 
1 -128 3 0 
1 -73 -142 0 
1 -15 3 0 
1 -125 -36 0 
1 -91 96 0 
1 -87 12 0 
1 82 106 0 
1 127 -102 0 
1 158 66 0 
1 -127 -87 0 
1 13 16 0 
1 28 44 0 
